c FILE: I18.clq
c
c SOURCE: Manually created by Breno Viana
c
c Graph Stats
c number of vertices  : 35
c number of edges     : 141
p col 35 141
e 1 2
e 1 3
e 1 4
e 1 5
e 1 8
e 1 10
e 1 11
e 1 12
e 1 15
e 1 17
e 1 18
e 1 22
e 1 29
e 1 30
e 1 35
e 2 4
e 2 5
e 2 8
e 2 10
e 2 11
e 2 12
e 2 15
e 2 17
e 2 18
e 2 22
e 2 29
e 2 30
e 2 35
e 3 6
e 4 5
e 4 8
e 4 10
e 4 11
e 4 12
e 4 15
e 4 17
e 4 18
e 4 22
e 4 24
e 4 29
e 4 30
e 4 35
e 5 6
e 5 8
e 5 10
e 5 11
e 5 12
e 5 15
e 5 17
e 5 18
e 5 22
e 5 29
e 5 30
e 5 35
e 6 7
e 6 9
e 6 13
e 6 14
e 7 9
e 7 13
e 7 14
e 8 10
e 8 11
e 8 12
e 8 15
e 8 17
e 8 18
e 8 22
e 8 29
e 8 30
e 8 35
e 9 13
e 10 11
e 10 12
e 10 15
e 10 17
e 10 18
e 10 22
e 10 29
e 10 30
e 10 35
e 11 12
e 11 15
e 11 17
e 11 18
e 11 22
e 11 29
e 11 30
e 11 35
e 12 15
e 12 17
e 12 18
e 12 22
e 12 29
e 12 30
e 12 35
e 15 17
e 15 18
e 15 22
e 15 29
e 15 30
e 15 35
e 16 19
e 16 20
e 16 21
e 16 23
e 17 18
e 17 22
e 17 29
e 17 30
e 17 35
e 18 22
e 18 29
e 18 30
e 18 35
e 19 20
e 19 21
e 19 23
e 20 21
e 20 23
e 21 23
e 22 25
e 22 29
e 22 30
e 22 35
e 24 25
e 24 31
e 25 26
e 25 31
e 26 27
e 26 28
e 26 35
e 27 28
e 28 34
e 29 30
e 29 35
e 30 35
e 31 32
e 32 33
e 32 34
e 33 34
